sat-competition-2018/orders/benchmarks-chi/cms-scheel-sha3-order-w1-rc-o4.cnf
c This is a CNF SAT formula in the DIMACS CNF format,
c produced with the bc2cnf translator by Tommi Junttila;
c see http://users.ics.aalto.fi/tjunttil/circuits/index.html
c cidentity <-> 1
c h1out24 <-> 28
c h1r3c24 <-> 28
c h1out23 <-> 31
c h1r3c23 <-> 31
c h1out22 <-> 34
c h1r3c22 <-> 34
c h1out21 <-> 37
c h1r3c21 <-> 37
c h1out20 <-> 40
c h1r3c20 <-> 40
c h1out19 <-> 43
c h1r3c19 <-> 43
c h1out18 <-> 46
c h1r3c18 <-> 46
c h1out17 <-> 49
c h1r3c17 <-> 49
c h1out16 <-> 52
c h1r3c16 <-> 52
c h1out15 <-> 55
c h1r3c15 <-> 55
c h1out14 <-> 58
c h1r3c14 <-> 58
c h1out13 <-> 61
c h1r3c13 <-> 61
c h1out12 <-> 64
c h1r3c12 <-> 64
c h1out11 <-> 67
c h1r3c11 <-> 67
c h1out10 <-> 70
c h1r3c10 <-> 70
c h1out9 <-> 73
c h1r3c9 <-> 73
c h1out8 <-> 76
c h1r3c8 <-> 76
c h1out7 <-> 79
c h1r3c7 <-> 79
c h1out6 <-> 82
c h1r3c6 <-> 82
c h1out5 <-> 85
c h1r3c5 <-> 85
c h1out4 <-> 88
c h1r3c4 <-> 88
c h1out3 <-> 91
c h1r3c3 <-> 91
c h1out2 <-> 94
c h1r3c2 <-> 94
c h1out1 <-> 97
c h1r3c1 <-> 97
c h1out0 <-> 100
c h1r3c0 <-> 100
c h1r2c24 <-> 103
c h1r2c23 <-> 106
c h1r2c22 <-> 109
c h1r2c21 <-> 112
c h1r2c20 <-> 115
c h1r2c19 <-> 118
c h1r2c18 <-> 121
c h1r2c17 <-> 124
c h1r2c16 <-> 127
c h1r2c15 <-> 130
c h1r2c14 <-> 133
c h1r2c13 <-> 136
c h1r2c12 <-> 139
c h1r2c11 <-> 142
c h1r2c10 <-> 145
c h1r2c9 <-> 148
c h1r2c8 <-> 151
c h1r2c7 <-> 154
c h1r2c6 <-> 157
c h1r2c5 <-> 160
c h1r2c4 <-> 163
c h1r2c3 <-> 166
c h1r2c2 <-> 169
c h1r2c1 <-> 172
c h1r2c0 <-> 175
c h1r1c24 <-> 178
c h1r1c23 <-> 181
c h1r1c22 <-> 184
c h1r1c21 <-> 187
c h1r1c20 <-> 190
c h1r1c19 <-> 193
c h1r1c18 <-> 196
c h1r1c17 <-> 199
c h1r1c16 <-> 202
c h1r1c15 <-> 205
c h1r1c14 <-> 208
c h1r1c13 <-> 211
c h1r1c12 <-> 214
c h1r1c11 <-> 217
c h1r1c10 <-> 220
c h1r1c9 <-> 223
c h1r1c8 <-> 226
c h1r1c7 <-> 229
c h1r1c6 <-> 232
c h1r1c5 <-> 235
c h1r1c4 <-> 238
c h1r1c3 <-> 241
c h1r1c2 <-> 244
c h1r1c1 <-> 247
c h1r1c0 <-> 250
c h1r0c24 <-> 253
c h1r0c23 <-> 256
c h1r0c22 <-> 259
c h1in24 <-> 261
c h1r0c21 <-> 263
c h1in23 <-> 265
c h1r0c20 <-> 267
c h1in22 <-> 269
c h1in21 <-> 271
c h1in20 <-> 272
c h1r0c19 <-> 273
c h1r0c18 <-> 276
c h1r0c17 <-> 279
c h1in19 <-> 281
c h1r0c16 <-> 283
c h1in18 <-> 285
c h1r0c15 <-> 287
c h1in17 <-> 289
c h1in16 <-> 291
c h1in15 <-> 292
c h1r0c14 <-> 293
c h1r0c13 <-> 296
c h1r0c12 <-> 299
c h1in14 <-> 301
c h1r0c11 <-> 303
c h1in13 <-> 305
c h1r0c10 <-> 307
c h1in12 <-> 309
c h1in11 <-> 311
c h1in10 <-> 312
c h1r0c9 <-> 313
c h1r0c8 <-> 316
c h1r0c7 <-> 319
c h1in9 <-> 321
c h1r0c6 <-> 323
c h1in8 <-> 325
c h1r0c5 <-> 327
c h1in7 <-> 329
c h1in6 <-> 331
c h1in5 <-> 332
c h1r0c4 <-> 333
c h1r0c3 <-> 336
c h1r0c2 <-> 339
c h1in4 <-> 341
c h1r0c1 <-> 343
c h1in3 <-> 345
c h1r0c0 <-> 347
c h1in2 <-> 349
c h1in1 <-> 351
c h1in0 <-> 352
p cnf 352 1028
1 0
-2 3 0
-2 4 0
-2 5 0
-2 6 0
-2 7 0
-2 8 0
-2 9 0
-2 10 0
-2 11 0
-2 12 0
-2 13 0
-2 14 0
-2 15 0
-2 16 0
-2 17 0
-2 18 0
-2 19 0
-2 20 0
-2 21 0
-2 22 0
-2 23 0
-2 24 0
-2 25 0
-2 26 0
-2 27 0
2 -27 -26 -25 -24 -23 -22 -21 -20 -19 -18 -17 -16 -15 -14 -13 -12 -11 -10 -9 -8 -7 -6 -5 -4 -3 0
-2 0
3 261 28 0
3 -261 -28 0
-3 261 -28 0
-3 -261 28 0
4 265 31 0
4 -265 -31 0
-4 265 -31 0
-4 -265 31 0
5 269 34 0
5 -269 -34 0
-5 269 -34 0
-5 -269 34 0
6 271 37 0
6 -271 -37 0
-6 271 -37 0
-6 -271 37 0
7 272 40 0
7 -272 -40 0
-7 272 -40 0
-7 -272 40 0
8 281 43 0
8 -281 -43 0
-8 281 -43 0
-8 -281 43 0
9 285 46 0
9 -285 -46 0
-9 285 -46 0
-9 -285 46 0
10 289 49 0
10 -289 -49 0
-10 289 -49 0
-10 -289 49 0
11 291 52 0
11 -291 -52 0
-11 291 -52 0
-11 -291 52 0
12 292 55 0
12 -292 -55 0
-12 292 -55 0
-12 -292 55 0
13 301 58 0
13 -301 -58 0
-13 301 -58 0
-13 -301 58 0
14 305 61 0
14 -305 -61 0
-14 305 -61 0
-14 -305 61 0
15 309 64 0
15 -309 -64 0
-15 309 -64 0
-15 -309 64 0
16 311 67 0
16 -311 -67 0
-16 311 -67 0
-16 -311 67 0
17 312 70 0
17 -312 -70 0
-17 312 -70 0
-17 -312 70 0
18 321 73 0
18 -321 -73 0
-18 321 -73 0
-18 -321 73 0
19 325 76 0
19 -325 -76 0
-19 325 -76 0
-19 -325 76 0
20 329 79 0
20 -329 -79 0
-20 329 -79 0
-20 -329 79 0
21 331 82 0
21 -331 -82 0
-21 331 -82 0
-21 -331 82 0
22 332 85 0
22 -332 -85 0
-22 332 -85 0
-22 -332 85 0
23 341 88 0
23 -341 -88 0
-23 341 -88 0
-23 -341 88 0
24 345 91 0
24 -345 -91 0
-24 345 -91 0
-24 -345 91 0
25 349 94 0
25 -349 -94 0
-25 349 -94 0
-25 -349 94 0
26 351 97 0
26 -351 -97 0
-26 351 -97 0
-26 -351 97 0
27 352 100 0
27 -352 -100 0
-27 352 -100 0
-27 -352 100 0
28 103 -29 0
28 -103 29 0
-28 103 29 0
-28 -103 -29 0
-29 30 0
-29 112 0
29 -112 -30 0
30 115 0
-30 -115 0
31 106 -32 0
31 -106 32 0
-31 106 32 0
-31 -106 -32 0
-32 33 0
-32 115 0
32 -115 -33 0
33 103 0
-33 -103 0
34 109 -35 0
34 -109 35 0
-34 109 35 0
-34 -109 -35 0
-35 36 0
-35 103 0
35 -103 -36 0
36 106 0
-36 -106 0
37 112 -38 0
37 -112 38 0
-37 112 38 0
-37 -112 -38 0
-38 39 0
-38 106 0
38 -106 -39 0
39 109 0
-39 -109 0
40 115 -41 0
40 -115 41 0
-40 115 41 0
-40 -115 -41 0
-41 42 0
-41 109 0
41 -109 -42 0
42 112 0
-42 -112 0
43 118 -44 0
43 -118 44 0
-43 118 44 0
-43 -118 -44 0
-44 45 0
-44 127 0
44 -127 -45 0
45 130 0
-45 -130 0
46 121 -47 0
46 -121 47 0
-46 121 47 0
-46 -121 -47 0
-47 48 0
-47 130 0
47 -130 -48 0
48 118 0
-48 -118 0
49 124 -50 0
49 -124 50 0
-49 124 50 0
-49 -124 -50 0
-50 51 0
-50 118 0
50 -118 -51 0
51 121 0
-51 -121 0
52 127 -53 0
52 -127 53 0
-52 127 53 0
-52 -127 -53 0
-53 54 0
-53 121 0
53 -121 -54 0
54 124 0
-54 -124 0
55 130 -56 0
55 -130 56 0
-55 130 56 0
-55 -130 -56 0
-56 57 0
-56 124 0
56 -124 -57 0
57 127 0
-57 -127 0
58 133 -59 0
58 -133 59 0
-58 133 59 0
-58 -133 -59 0
-59 60 0
-59 142 0
59 -142 -60 0
60 145 0
-60 -145 0
61 136 -62 0
61 -136 62 0
-61 136 62 0
-61 -136 -62 0
-62 63 0
-62 145 0
62 -145 -63 0
63 133 0
-63 -133 0
64 139 -65 0
64 -139 65 0
-64 139 65 0
-64 -139 -65 0
-65 66 0
-65 133 0
65 -133 -66 0
66 136 0
-66 -136 0
67 142 -68 0
67 -142 68 0
-67 142 68 0
-67 -142 -68 0
-68 69 0
-68 136 0
68 -136 -69 0
69 139 0
-69 -139 0
70 145 -71 0
70 -145 71 0
-70 145 71 0
-70 -145 -71 0
-71 72 0
-71 139 0
71 -139 -72 0
72 142 0
-72 -142 0
73 148 -74 0
73 -148 74 0
-73 148 74 0
-73 -148 -74 0
-74 75 0
-74 157 0
74 -157 -75 0
75 160 0
-75 -160 0
76 151 -77 0
76 -151 77 0
-76 151 77 0
-76 -151 -77 0
-77 78 0
-77 160 0
77 -160 -78 0
78 148 0
-78 -148 0
79 154 -80 0
79 -154 80 0
-79 154 80 0
-79 -154 -80 0
-80 81 0
-80 148 0
80 -148 -81 0
81 151 0
-81 -151 0
82 157 -83 0
82 -157 83 0
-82 157 83 0
-82 -157 -83 0
-83 84 0
-83 151 0
83 -151 -84 0
84 154 0
-84 -154 0
85 160 -86 0
85 -160 86 0
-85 160 86 0
-85 -160 -86 0
-86 87 0
-86 154 0
86 -154 -87 0
87 157 0
-87 -157 0
88 163 -89 0
88 -163 89 0
-88 163 89 0
-88 -163 -89 0
-89 90 0
-89 172 0
89 -172 -90 0
90 175 0
-90 -175 0
91 166 -92 0
91 -166 92 0
-91 166 92 0
-91 -166 -92 0
-92 93 0
-92 175 0
92 -175 -93 0
93 163 0
-93 -163 0
94 169 -95 0
94 -169 95 0
-94 169 95 0
-94 -169 -95 0
-95 96 0
-95 163 0
95 -163 -96 0
96 166 0
-96 -166 0
97 172 -98 0
97 -172 98 0
-97 172 98 0
-97 -172 -98 0
-98 99 0
-98 166 0
98 -166 -99 0
99 169 0
-99 -169 0
100 175 -101 0
100 -175 101 0
-100 175 101 0
-100 -175 -101 0
-101 102 0
-101 169 0
101 -169 -102 0
102 172 0
-102 -172 0
103 178 -104 0
103 -178 104 0
-103 178 104 0
-103 -178 -104 0
-104 105 0
-104 187 0
104 -187 -105 0
105 190 0
-105 -190 0
106 181 -107 0
106 -181 107 0
-106 181 107 0
-106 -181 -107 0
-107 108 0
-107 190 0
107 -190 -108 0
108 178 0
-108 -178 0
109 184 -110 0
109 -184 110 0
-109 184 110 0
-109 -184 -110 0
-110 111 0
-110 178 0
110 -178 -111 0
111 181 0
-111 -181 0
112 187 -113 0
112 -187 113 0
-112 187 113 0
-112 -187 -113 0
-113 114 0
-113 181 0
113 -181 -114 0
114 184 0
-114 -184 0
115 190 -116 0
115 -190 116 0
-115 190 116 0
-115 -190 -116 0
-116 117 0
-116 184 0
116 -184 -117 0
117 187 0
-117 -187 0
118 193 -119 0
118 -193 119 0
-118 193 119 0
-118 -193 -119 0
-119 120 0
-119 202 0
119 -202 -120 0
120 205 0
-120 -205 0
121 196 -122 0
121 -196 122 0
-121 196 122 0
-121 -196 -122 0
-122 123 0
-122 205 0
122 -205 -123 0
123 193 0
-123 -193 0
124 199 -125 0
124 -199 125 0
-124 199 125 0
-124 -199 -125 0
-125 126 0
-125 193 0
125 -193 -126 0
126 196 0
-126 -196 0
127 202 -128 0
127 -202 128 0
-127 202 128 0
-127 -202 -128 0
-128 129 0
-128 196 0
128 -196 -129 0
129 199 0
-129 -199 0
130 205 -131 0
130 -205 131 0
-130 205 131 0
-130 -205 -131 0
-131 132 0
-131 199 0
131 -199 -132 0
132 202 0
-132 -202 0
133 208 -134 0
133 -208 134 0
-133 208 134 0
-133 -208 -134 0
-134 135 0
-134 217 0
134 -217 -135 0
135 220 0
-135 -220 0
136 211 -137 0
136 -211 137 0
-136 211 137 0
-136 -211 -137 0
-137 138 0
-137 220 0
137 -220 -138 0
138 208 0
-138 -208 0
139 214 -140 0
139 -214 140 0
-139 214 140 0
-139 -214 -140 0
-140 141 0
-140 208 0
140 -208 -141 0
141 211 0
-141 -211 0
142 217 -143 0
142 -217 143 0
-142 217 143 0
-142 -217 -143 0
-143 144 0
-143 211 0
143 -211 -144 0
144 214 0
-144 -214 0
145 220 -146 0
145 -220 146 0
-145 220 146 0
-145 -220 -146 0
-146 147 0
-146 214 0
146 -214 -147 0
147 217 0
-147 -217 0
148 223 -149 0
148 -223 149 0
-148 223 149 0
-148 -223 -149 0
-149 150 0
-149 232 0
149 -232 -150 0
150 235 0
-150 -235 0
151 226 -152 0
151 -226 152 0
-151 226 152 0
-151 -226 -152 0
-152 153 0
-152 235 0
152 -235 -153 0
153 223 0
-153 -223 0
154 229 -155 0
154 -229 155 0
-154 229 155 0
-154 -229 -155 0
-155 156 0
-155 223 0
155 -223 -156 0
156 226 0
-156 -226 0
157 232 -158 0
157 -232 158 0
-157 232 158 0
-157 -232 -158 0
-158 159 0
-158 226 0
158 -226 -159 0
159 229 0
-159 -229 0
160 235 -161 0
160 -235 161 0
-160 235 161 0
-160 -235 -161 0
-161 162 0
-161 229 0
161 -229 -162 0
162 232 0
-162 -232 0
163 238 -164 0
163 -238 164 0
-163 238 164 0
-163 -238 -164 0
-164 165 0
-164 247 0
164 -247 -165 0
165 250 0
-165 -250 0
166 241 -167 0
166 -241 167 0
-166 241 167 0
-166 -241 -167 0
-167 168 0
-167 250 0
167 -250 -168 0
168 238 0
-168 -238 0
169 244 -170 0
169 -244 170 0
-169 244 170 0
-169 -244 -170 0
-170 171 0
-170 238 0
170 -238 -171 0
171 241 0
-171 -241 0
172 247 -173 0
172 -247 173 0
-172 247 173 0
-172 -247 -173 0
-173 174 0
-173 241 0
173 -241 -174 0
174 244 0
-174 -244 0
175 250 -176 0
175 -250 176 0
-175 250 176 0
-175 -250 -176 0
-176 177 0
-176 244 0
176 -244 -177 0
177 247 0
-177 -247 0
178 253 -179 0
178 -253 179 0
-178 253 179 0
-178 -253 -179 0
-179 180 0
-179 263 0
179 -263 -180 0
180 267 0
-180 -267 0
181 256 -182 0
181 -256 182 0
-181 256 182 0
-181 -256 -182 0
-182 183 0
-182 267 0
182 -267 -183 0
183 253 0
-183 -253 0
184 259 -185 0
184 -259 185 0
-184 259 185 0
-184 -259 -185 0
-185 186 0
-185 253 0
185 -253 -186 0
186 256 0
-186 -256 0
187 263 -188 0
187 -263 188 0
-187 263 188 0
-187 -263 -188 0
-188 189 0
-188 256 0
188 -256 -189 0
189 259 0
-189 -259 0
190 267 -191 0
190 -267 191 0
-190 267 191 0
-190 -267 -191 0
-191 192 0
-191 259 0
191 -259 -192 0
192 263 0
-192 -263 0
193 273 -194 0
193 -273 194 0
-193 273 194 0
-193 -273 -194 0
-194 195 0
-194 283 0
194 -283 -195 0
195 287 0
-195 -287 0
196 276 -197 0
196 -276 197 0
-196 276 197 0
-196 -276 -197 0
-197 198 0
-197 287 0
197 -287 -198 0
198 273 0
-198 -273 0
199 279 -200 0
199 -279 200 0
-199 279 200 0
-199 -279 -200 0
-200 201 0
-200 273 0
200 -273 -201 0
201 276 0
-201 -276 0
202 283 -203 0
202 -283 203 0
-202 283 203 0
-202 -283 -203 0
-203 204 0
-203 276 0
203 -276 -204 0
204 279 0
-204 -279 0
205 287 -206 0
205 -287 206 0
-205 287 206 0
-205 -287 -206 0
-206 207 0
-206 279 0
206 -279 -207 0
207 283 0
-207 -283 0
208 293 -209 0
208 -293 209 0
-208 293 209 0
-208 -293 -209 0
-209 210 0
-209 303 0
209 -303 -210 0
210 307 0
-210 -307 0
211 296 -212 0
211 -296 212 0
-211 296 212 0
-211 -296 -212 0
-212 213 0
-212 307 0
212 -307 -213 0
213 293 0
-213 -293 0
214 299 -215 0
214 -299 215 0
-214 299 215 0
-214 -299 -215 0
-215 216 0
-215 293 0
215 -293 -216 0
216 296 0
-216 -296 0
217 303 -218 0
217 -303 218 0
-217 303 218 0
-217 -303 -218 0
-218 219 0
-218 296 0
218 -296 -219 0
219 299 0
-219 -299 0
220 307 -221 0
220 -307 221 0
-220 307 221 0
-220 -307 -221 0
-221 222 0
-221 299 0
221 -299 -222 0
222 303 0
-222 -303 0
223 313 -224 0
223 -313 224 0
-223 313 224 0
-223 -313 -224 0
-224 225 0
-224 323 0
224 -323 -225 0
225 327 0
-225 -327 0
226 316 -227 0
226 -316 227 0
-226 316 227 0
-226 -316 -227 0
-227 228 0
-227 327 0
227 -327 -228 0
228 313 0
-228 -313 0
229 319 -230 0
229 -319 230 0
-229 319 230 0
-229 -319 -230 0
-230 231 0
-230 313 0
230 -313 -231 0
231 316 0
-231 -316 0
232 323 -233 0
232 -323 233 0
-232 323 233 0
-232 -323 -233 0
-233 234 0
-233 316 0
233 -316 -234 0
234 319 0
-234 -319 0
235 327 -236 0
235 -327 236 0
-235 327 236 0
-235 -327 -236 0
-236 237 0
-236 319 0
236 -319 -237 0
237 323 0
-237 -323 0
238 333 -239 0
238 -333 239 0
-238 333 239 0
-238 -333 -239 0
-239 240 0
-239 343 0
239 -343 -240 0
240 347 0
-240 -347 0
241 336 -242 0
241 -336 242 0
-241 336 242 0
-241 -336 -242 0
-242 243 0
-242 347 0
242 -347 -243 0
243 333 0
-243 -333 0
244 339 -245 0
244 -339 245 0
-244 339 245 0
-244 -339 -245 0
-245 246 0
-245 333 0
245 -333 -246 0
246 336 0
-246 -336 0
247 343 -248 0
247 -343 248 0
-247 343 248 0
-247 -343 -248 0
-248 249 0
-248 336 0
248 -336 -249 0
249 339 0
-249 -339 0
250 347 -251 0
250 -347 251 0
-250 347 251 0
-250 -347 -251 0
-251 252 0
-251 339 0
251 -339 -252 0
252 343 0
-252 -343 0
253 261 -254 0
253 -261 254 0
-253 261 254 0
-253 -261 -254 0
-254 255 0
-254 271 0
254 -271 -255 0
255 272 0
-255 -272 0
256 265 -257 0
256 -265 257 0
-256 265 257 0
-256 -265 -257 0
-257 258 0
-257 272 0
257 -272 -258 0
258 261 0
-258 -261 0
259 269 -260 0
259 -269 260 0
-259 269 260 0
-259 -269 -260 0
-260 261 0
-260 262 0
260 -262 -261 0
262 265 0
-262 -265 0
263 271 -264 0
263 -271 264 0
-263 271 264 0
-263 -271 -264 0
-264 265 0
-264 266 0
264 -266 -265 0
266 269 0
-266 -269 0
267 272 -268 0
267 -272 268 0
-267 272 268 0
-267 -272 -268 0
-268 269 0
-268 270 0
268 -270 -269 0
270 271 0
-270 -271 0
273 281 -274 0
273 -281 274 0
-273 281 274 0
-273 -281 -274 0
-274 275 0
-274 291 0
274 -291 -275 0
275 292 0
-275 -292 0
276 285 -277 0
276 -285 277 0
-276 285 277 0
-276 -285 -277 0
-277 278 0
-277 292 0
277 -292 -278 0
278 281 0
-278 -281 0
279 289 -280 0
279 -289 280 0
-279 289 280 0
-279 -289 -280 0
-280 281 0
-280 282 0
280 -282 -281 0
282 285 0
-282 -285 0
283 291 -284 0
283 -291 284 0
-283 291 284 0
-283 -291 -284 0
-284 285 0
-284 286 0
284 -286 -285 0
286 289 0
-286 -289 0
287 292 -288 0
287 -292 288 0
-287 292 288 0
-287 -292 -288 0
-288 289 0
-288 290 0
288 -290 -289 0
290 291 0
-290 -291 0
293 301 -294 0
293 -301 294 0
-293 301 294 0
-293 -301 -294 0
-294 295 0
-294 311 0
294 -311 -295 0
295 312 0
-295 -312 0
296 305 -297 0
296 -305 297 0
-296 305 297 0
-296 -305 -297 0
-297 298 0
-297 312 0
297 -312 -298 0
298 301 0
-298 -301 0
299 309 -300 0
299 -309 300 0
-299 309 300 0
-299 -309 -300 0
-300 301 0
-300 302 0
300 -302 -301 0
302 305 0
-302 -305 0
303 311 -304 0
303 -311 304 0
-303 311 304 0
-303 -311 -304 0
-304 305 0
-304 306 0
304 -306 -305 0
306 309 0
-306 -309 0
307 312 -308 0
307 -312 308 0
-307 312 308 0
-307 -312 -308 0
-308 309 0
-308 310 0
308 -310 -309 0
310 311 0
-310 -311 0
313 321 -314 0
313 -321 314 0
-313 321 314 0
-313 -321 -314 0
-314 315 0
-314 331 0
314 -331 -315 0
315 332 0
-315 -332 0
316 325 -317 0
316 -325 317 0
-316 325 317 0
-316 -325 -317 0
-317 318 0
-317 332 0
317 -332 -318 0
318 321 0
-318 -321 0
319 329 -320 0
319 -329 320 0
-319 329 320 0
-319 -329 -320 0
-320 321 0
-320 322 0
320 -322 -321 0
322 325 0
-322 -325 0
323 331 -324 0
323 -331 324 0
-323 331 324 0
-323 -331 -324 0
-324 325 0
-324 326 0
324 -326 -325 0
326 329 0
-326 -329 0
327 332 -328 0
327 -332 328 0
-327 332 328 0
-327 -332 -328 0
-328 329 0
-328 330 0
328 -330 -329 0
330 331 0
-330 -331 0
333 341 -334 0
333 -341 334 0
-333 341 334 0
-333 -341 -334 0
-334 335 0
-334 351 0
334 -351 -335 0
335 352 0
-335 -352 0
336 345 -337 0
336 -345 337 0
-336 345 337 0
-336 -345 -337 0
-337 338 0
-337 352 0
337 -352 -338 0
338 341 0
-338 -341 0
339 349 -340 0
339 -349 340 0
-339 349 340 0
-339 -349 -340 0
-340 341 0
-340 342 0
340 -342 -341 0
342 345 0
-342 -345 0
343 351 -344 0
343 -351 344 0
-343 351 344 0
-343 -351 -344 0
-344 345 0
-344 346 0
344 -346 -345 0
346 349 0
-346 -349 0
347 352 -348 0
347 -352 348 0
-347 352 348 0
-347 -352 -348 0
-348 349 0
-348 350 0
348 -350 -349 0
350 351 0
-350 -351 0
